(set-info :origin "SVCOMP13 benchmarks generated by Arie Gurfinkel")
(set-info :status sat)
(set-logic HORN)
(declare-fun cp-rel-__UFO__0
             (Real
              Real
              Real
              Real
              Real
              Real
              Real
              Real
              Real
              Real
              Real
              Real
              Real
              Real)
             Bool)
(declare-fun cp-rel-UnifiedReturnBlock () Bool)
(declare-fun cp-rel-bb.i.i.i
             (Real
              Real
              Real
              Real
              Real
              Real
              Real
              Real
              Real
              Real
              Real
              Real
              Real
              Real)
             Bool)
(declare-fun cp-rel-_L___0.i.i.i.i.i () Bool)
(assert |cp-rel-_L___0.i.i.i.i.i|)
(assert (forall ((?A Real) (?B Real) (?C Real) (?D Real) (?E Real) (?F Real) (?G Real) (?H Real) (?I Real) (?J Real) (?K Real) (?L Real) (?M Real) (?N Real) (?O Bool) )(let (($x317548 (|cp-rel-bb.i.i.i| ?A ?B ?C ?D ?E ?F ?G ?H ?I ?J ?K ?L ?M ?N)))
(let (($x335048 (= ?O true)))
(let (($x293374 (and |cp-rel-_L___0.i.i.i.i.i| (<= ?N 0.0) (>= ?M 0.0) (<= ?M 0.0) (>= ?L 0.0) (<= ?L 0.0) (>= ?K 0.0) (<= ?K 0.0) (>= ?J 0.0) (<= ?J 0.0) (>= ?I 1.0) (<= ?I 1.0) (>= ?H 1.0) (<= ?H 1.0) (>= ?G 1.0) (<= ?G 1.0) (>= ?F 1.0) (<= ?F 1.0) (>= ?E 1.0) (<= ?E 1.0) (>= ?D 1.0) (<= ?D 1.0) (>= ?C 1.0) (<= ?C 1.0) (>= ?B 1.0) (<= ?B 1.0) (>= ?A 0.0) (<= ?A 0.0) $x335048 (>= ?N 0.0))))
(=> $x293374 $x317548)))))
)
(assert (forall ((?A Real) (?B Real) (?C Real) (?D Real) (?E Real) (?F Real) (?G Real) (?H Real) (?I Real) (?J Real) (?K Real) (?L Real) (?M Real) (?N Real) (?O Real) (?P Real) (?Q Real) (?R Real) (?S Real) (?T Real) (?U Real) (?V Real) (?W Real) (?X Real) (?Y Real) (?Z Real) (?A1 Real) (?B1 Real) (?C1 Bool) (?D1 Bool) (?E1 Bool) (?F1 Bool) (?G1 Bool) (?H1 Bool) (?I1 Bool) (?J1 Bool) (?K1 Bool) (?L1 Bool) (?M1 Bool) (?N1 Bool) (?O1 Bool) (?P1 Bool) (?Q1 Bool) (?R1 Bool) (?S1 Bool) (?T1 Bool) (?U1 Bool) (?V1 Bool) (?W1 Bool) (?X1 Bool) (?Y1 Bool) (?Z1 Bool) (?A2 Bool) (?B2 Real) (?C2 Bool) (?D2 Bool) (?E2 Bool) (?F2 Bool) (?G2 Bool) (?H2 Bool) (?I2 Bool) (?J2 Bool) (?K2 Bool) (?L2 Bool) (?M2 Bool) (?N2 Bool) (?O2 Bool) (?P2 Bool) (?Q2 Bool) (?R2 Bool) (?S2 Bool) (?T2 Bool) (?U2 Bool) (?V2 Bool) (?W2 Bool) (?X2 Bool) (?Y2 Bool) (?Z2 Bool) (?A3 Bool) (?B3 Bool) (?C3 Bool) (?D3 Bool) (?E3 Bool) (?F3 Bool) (?G3 Bool) (?H3 Bool) (?I3 Real) (?J3 Bool) (?K3 Bool) (?L3 Bool) (?M3 Bool) (?N3 Bool) (?O3 Bool) (?P3 Bool) (?Q3 Bool) (?R3 Bool) (?S3 Bool) (?T3 Bool) (?U3 Bool) (?V3 Bool) (?W3 Bool) (?X3 Bool) (?Y3 Bool) (?Z3 Bool) (?A4 Bool) (?B4 Bool) (?C4 Bool) (?D4 Bool) (?E4 Bool) (?F4 Bool) (?G4 Bool) (?H4 Bool) (?I4 Bool) (?J4 Bool) (?K4 Bool) (?L4 Bool) (?M4 Bool) (?N4 Bool) (?O4 Bool) (?P4 Bool) (?Q4 Bool) (?R4 Bool) (?S4 Bool) (?T4 Bool) (?U4 Bool) (?V4 Bool) (?W4 Bool) (?X4 Bool) (?Y4 Bool) (?Z4 Bool) (?A5 Bool) (?B5 Bool) (?C5 Bool) (?D5 Bool) (?E5 Bool) (?F5 Real) (?G5 Real) (?H5 Real) (?I5 Bool) (?J5 Bool) (?K5 Bool) (?L5 Bool) (?M5 Bool) (?N5 Bool) (?O5 Bool) (?P5 Bool) (?Q5 Bool) (?R5 Bool) (?S5 Bool) (?T5 Bool) (?U5 Bool) (?V5 Bool) (?W5 Bool) (?X5 Bool) (?Y5 Bool) (?Z5 Bool) (?A6 Bool) (?B6 Bool) (?C6 Bool) (?D6 Bool) (?E6 Bool) (?F6 Bool) (?G6 Bool) (?H6 Bool) (?I6 Bool) (?J6 Bool) (?K6 Bool) (?L6 Bool) (?M6 Bool) (?N6 Bool) (?O6 Bool) (?P6 Bool) (?Q6 Bool) (?R6 Bool) (?S6 Bool) (?T6 Bool) (?U6 Bool) (?V6 Real) (?W6 Real) (?X6 Real) (?Y6 Bool) (?Z6 Bool) (?A7 Bool) (?B7 Bool) (?C7 Bool) (?D7 Bool) (?E7 Bool) (?F7 Bool) (?G7 Bool) (?H7 Bool) (?I7 Bool) (?J7 Bool) (?K7 Bool) (?L7 Bool) (?M7 Bool) (?N7 Bool) (?O7 Bool) (?P7 Bool) (?Q7 Bool) (?R7 Bool) (?S7 Bool) (?T7 Bool) (?U7 Bool) (?V7 Bool) (?W7 Bool) (?X7 Bool) (?Y7 Bool) (?Z7 Real) (?A8 Bool) (?B8 Bool) (?C8 Bool) (?D8 Bool) (?E8 Bool) (?F8 Bool) (?G8 Bool) (?H8 Bool) (?I8 Bool) (?J8 Bool) (?K8 Bool) (?L8 Bool) (?M8 Bool) (?N8 Bool) (?O8 Bool) (?P8 Bool) (?Q8 Bool) (?R8 Real) (?S8 Bool) (?T8 Bool) (?U8 Bool) (?V8 Bool) (?W8 Bool) (?X8 Bool) (?Y8 Bool) (?Z8 Bool) (?A9 Bool) (?B9 Bool) (?C9 Bool) (?D9 Bool) (?E9 Bool) (?F9 Bool) (?G9 Bool) (?H9 Bool) (?I9 Bool) (?J9 Bool) (?K9 Bool) (?L9 Bool) (?M9 Bool) (?N9 Bool) (?O9 Bool) (?P9 Bool) (?Q9 Bool) (?R9 Bool) (?S9 Bool) (?T9 Bool) (?U9 Bool) (?V9 Bool) (?W9 Bool) (?X9 Bool) (?Y9 Bool) (?Z9 Bool) (?A10 Bool) (?B10 Bool) (?C10 Bool) (?D10 Bool) (?E10 Bool) (?F10 Bool) (?G10 Bool) (?H10 Bool) (?I10 Bool) (?J10 Bool) (?K10 Bool) (?L10 Bool) (?M10 Bool) (?N10 Bool) (?O10 Bool) (?P10 Bool) (?Q10 Bool) (?R10 Bool) (?S10 Bool) (?T10 Real) (?U10 Bool) (?V10 Bool) (?W10 Bool) (?X10 Bool) (?Y10 Bool) (?Z10 Real) (?A11 Bool) (?B11 Real) (?C11 Bool) (?D11 Bool) (?E11 Bool) (?F11 Bool) (?G11 Real) (?H11 Real) (?I11 Real) (?J11 Real) (?K11 Real) (?L11 Real) (?M11 Bool) (?N11 Bool) (?O11 Bool) (?P11 Bool) (?Q11 Bool) (?R11 Bool) (?S11 Bool) (?T11 Bool) (?U11 Bool) (?V11 Bool) (?W11 Bool) (?X11 Bool) (?Y11 Bool) (?Z11 Bool) (?A12 Bool) (?B12 Bool) (?C12 Bool) (?D12 Bool) (?E12 Bool) (?F12 Real) (?G12 Bool) (?H12 Bool) (?I12 Bool) (?J12 Bool) (?K12 Bool) (?L12 Bool) (?M12 Bool) (?N12 Bool) (?O12 Bool) (?P12 Bool) (?Q12 Bool) (?R12 Bool) (?S12 Bool) (?T12 Bool) (?U12 Bool) (?V12 Bool) (?W12 Bool) (?X12 Bool) (?Y12 Bool) (?Z12 Real) (?A13 Real) (?B13 Real) (?C13 Real) (?D13 Real) (?E13 Real) (?F13 Bool) (?G13 Bool) (?H13 Bool) (?I13 Bool) (?J13 Bool) (?K13 Bool) (?L13 Bool) (?M13 Bool) (?N13 Bool) (?O13 Bool) (?P13 Bool) (?Q13 Bool) (?R13 Bool) (?S13 Bool) (?T13 Bool) (?U13 Bool) (?V13 Bool) (?W13 Bool) (?X13 Real) (?Y13 Real) (?Z13 Bool) (?A14 Bool) (?B14 Bool) (?C14 Bool) (?D14 Bool) (?E14 Bool) (?F14 Bool) (?G14 Bool) (?H14 Bool) (?I14 Bool) (?J14 Bool) (?K14 Bool) (?L14 Bool) (?M14 Bool) (?N14 Real) (?O14 Real) (?P14 Real) (?Q14 Real) (?R14 Real) (?S14 Real) (?T14 Real) (?U14 Real) (?V14 Real) (?W14 Real) (?X14 Real) (?Y14 Bool) (?Z14 Real) (?A15 Real) (?B15 Bool) (?C15 Real) (?D15 Bool) (?E15 Real) (?F15 Bool) (?G15 Bool) (?H15 Bool) (?I15 Bool) (?J15 Bool) (?K15 Bool) (?L15 Bool) (?M15 Bool) (?N15 Bool) (?O15 Bool) (?P15 Real) (?Q15 Real) (?R15 Bool) (?S15 Bool) (?T15 Real) (?U15 Bool) (?V15 Bool) (?W15 Bool) (?X15 Bool) (?Y15 Bool) (?Z15 Bool) (?A16 Real) (?B16 Bool) (?C16 Bool) (?D16 Bool) (?E16 Bool) (?F16 Bool) (?G16 Bool) (?H16 Bool) (?I16 Bool) (?J16 Bool) (?K16 Bool) (?L16 Bool) (?M16 Bool) (?N16 Bool) (?O16 Bool) (?P16 Bool) (?Q16 Bool) (?R16 Bool) (?S16 Bool) (?T16 Bool) (?U16 Bool) (?V16 Bool) (?W16 Bool) (?X16 Bool) (?Y16 Bool) (?Z16 Real) (?A17 Real) (?B17 Bool) (?C17 Bool) (?D17 Bool) (?E17 Bool) (?F17 Real) (?G17 Bool) (?H17 Real) (?I17 Real) (?J17 Bool) (?K17 Bool) (?L17 Bool) (?M17 Bool) (?N17 Bool) (?O17 Bool) (?P17 Bool) (?Q17 Bool) )(let (($x413515 (|cp-rel-bb.i.i.i| ?O ?P ?Q ?R ?S ?T ?U ?V ?W ?X ?Y ?Z ?A1 ?B1)))
(let (($x386851 (or (not ?Y1) (and ?O1 ?Z1 ?A2 (<= ?B2 0.0) (>= ?B2 0.0)) (and ?R1 ?C2 ?D2 (<= ?B2 ?B) (>= ?B2 ?B)) (and ?T1 ?E2 ?F2 (<= ?B2 ?C) (>= ?B2 ?C)) (and ?W1 ?G2 (not ?H2) (<= ?B2 0.0) (>= ?B2 0.0)))))
(let (($x229700 (or (not ?Y1) (and ?Z1 (not ?C2) (not ?E2) (not ?G2)) (and ?C2 (not ?Z1) (not ?E2) (not ?G2)) (and ?E2 (not ?Z1) (not ?C2) (not ?G2)) (and ?G2 (not ?Z1) (not ?C2) (not ?E2)))))
(let (($x341823 (or (not ?F3) (and ?Q2 ?G3 ?H3 (<= ?I3 0.0) (>= ?I3 0.0)) (and ?T2 ?J3 ?K3 (<= ?I3 ?K) (>= ?I3 ?K)) (and ?V2 ?L3 ?M3 (<= ?I3 0.0) (>= ?I3 0.0)) (and ?A3 ?N3 ?O3 (<= ?I3 ?L) (>= ?I3 ?L)) (and ?D3 ?P3 ?Q3 (<= ?I3 0.0) (>= ?I3 0.0)))))
(let (($x199474 (or (not ?F3) (and ?G3 (not ?J3) (not ?L3) (not ?N3) (not ?P3)) (and ?J3 (not ?G3) (not ?L3) (not ?N3) (not ?P3)) (and ?L3 (not ?G3) (not ?J3) (not ?N3) (not ?P3)) (and ?N3 (not ?G3) (not ?J3) (not ?L3) (not ?P3)) (and ?P3 (not ?G3) (not ?J3) (not ?L3) (not ?N3)))))
(let (($x152258 (or (not ?R3) (and ?F3 ?S3 ?T3) (and ?Q2 ?U3 (not ?H3)) (and ?T2 ?V3 (not ?K3)) (and ?V2 ?W3 (not ?M3)) (and ?A3 ?X3 (not ?O3)) (and ?D3 ?Y3 (not ?Q3)) (and ?O1 ?Z3 (not ?A2)) (and ?R1 ?A4 (not ?D2)) (and ?T1 ?B4 (not ?F2)) (and ?W1 ?C4 ?H2))))
(let (($x284116 (not ?B4)))
(let (($x146887 (not ?A4)))
(let (($x410864 (not ?Z3)))
(let (($x456274 (not ?Y3)))
(let (($x453098 (not ?X3)))
(let (($x392757 (not ?W3)))
(let (($x291931 (not ?V3)))
(let (($x237437 (not ?U3)))
(let (($x306422 (not ?S3)))
(let (($x131952 (or (not ?R3) (and ?S3 $x237437 $x291931 $x392757 $x453098 $x456274 $x410864 $x146887 $x284116 (not ?C4)) (and ?U3 $x306422 $x291931 $x392757 $x453098 $x456274 $x410864 $x146887 $x284116 (not ?C4)) (and ?V3 $x306422 $x237437 $x392757 $x453098 $x456274 $x410864 $x146887 $x284116 (not ?C4)) (and ?W3 $x306422 $x237437 $x291931 $x453098 $x456274 $x410864 $x146887 $x284116 (not ?C4)) (and ?X3 $x306422 $x237437 $x291931 $x392757 $x456274 $x410864 $x146887 $x284116 (not ?C4)) (and ?Y3 $x306422 $x237437 $x291931 $x392757 $x453098 $x410864 $x146887 $x284116 (not ?C4)) (and ?Z3 $x306422 $x237437 $x291931 $x392757 $x453098 $x456274 $x146887 $x284116 (not ?C4)) (and ?A4 $x306422 $x237437 $x291931 $x392757 $x453098 $x456274 $x410864 $x284116 (not ?C4)) (and ?B4 $x306422 $x237437 $x291931 $x392757 $x453098 $x456274 $x410864 $x146887 (not ?C4)) (and ?C4 $x306422 $x237437 $x291931 $x392757 $x453098 $x456274 $x410864 $x146887 $x284116))))
(let (($x172741 (or (not ?D4) (and ?F3 ?E4 (not ?T3)) (and ?Y1 ?F4 (not ?K2)))))
(let (($x484437 (and ?D4 ?J5 (not ?N4) (<= ?F5 ?K) (>= ?F5 ?K) (<= ?G5 ?L) (>= ?G5 ?L) (<= ?H5 ?M) (>= ?H5 ?M))))
(let (($x442812 (and ?L4 ?I5 ?W4 (<= ?F5 ?K) (>= ?F5 ?K) (<= ?G5 ?L) (>= ?G5 ?L) (<= ?H5 0.0) (>= ?H5 0.0))))
(let (($x258483 (and ?U4 ?E5 (<= ?F5 0.0) (>= ?F5 0.0) (<= ?G5 0.0) (>= ?G5 0.0) (<= ?H5 0.0) (>= ?H5 0.0))))
(let (($x209856 (or (not ?D5) (and ?E5 (not ?I5) (not ?J5)) (and ?I5 (not ?E5) (not ?J5)) (and ?J5 (not ?E5) (not ?I5)))))
(let (($x224610 (or (not ?T5) (and ?N5 ?U5 ?V5) (and ?J4 ?W5 ?T4) (and ?K5 ?X5 ?Y5) (and ?G4 ?Z5 ?Q4))))
(let (($x279624 (or (not ?T5) (and ?U5 (not ?W5) (not ?X5) (not ?Z5)) (and ?W5 (not ?U5) (not ?X5) (not ?Z5)) (and ?X5 (not ?U5) (not ?W5) (not ?Z5)) (and ?Z5 (not ?U5) (not ?W5) (not ?X5)))))
(let (($x152958 (or (not ?A6) (and ?N5 ?B6 (not ?V5)) (and ?A5 ?C6 (not ?P5)) (and ?R4 ?D6 (not ?C5)) (and ?K5 ?E6 (not ?Y5)) (and ?X4 ?F6 (not ?M5)) (and ?O4 ?G6 (not ?Z4)))))
(let (($x362765 (or (not ?A6) (and ?B6 (not ?C6) (not ?D6) (not ?E6) (not ?F6) (not ?G6)) (and ?C6 (not ?B6) (not ?D6) (not ?E6) (not ?F6) (not ?G6)) (and ?D6 (not ?B6) (not ?C6) (not ?E6) (not ?F6) (not ?G6)) (and ?E6 (not ?B6) (not ?C6) (not ?D6) (not ?F6) (not ?G6)) (and ?F6 (not ?B6) (not ?C6) (not ?D6) (not ?E6) (not ?G6)) (and ?G6 (not ?B6) (not ?C6) (not ?D6) (not ?E6) (not ?F6)))))
(let (($x374201 (and ?D5 ?Z6 (not ?S5) (<= ?V6 ?N) (>= ?V6 ?N) (<= ?W6 ?G5) (>= ?W6 ?G5) (<= ?X6 ?F5) (>= ?X6 ?F5))))
(let (($x450488 (and ?Q5 ?Y6 ?J6 (<= ?V6 0.0) (>= ?V6 0.0) (<= ?W6 ?G5) (>= ?W6 ?G5) (<= ?X6 ?F5) (>= ?X6 ?F5))))
(let (($x427610 (and ?H6 ?U6 (<= ?V6 0.0) (>= ?V6 0.0) (<= ?W6 0.0) (>= ?W6 0.0) (<= ?X6 0.0) (>= ?X6 0.0))))
(let (($x339263 (or (not ?T6) (and ?U6 (not ?Y6) (not ?Z6)) (and ?Y6 (not ?U6) (not ?Z6)) (and ?Z6 (not ?U6) (not ?Y6)))))
(let (($x344750 (or (not ?X7) (and ?J7 ?Y7 (<= ?Z7 1.0) (>= ?Z7 1.0)) (and ?R6 ?A8 (not ?L7) (<= ?Z7 ?H) (>= ?Z7 ?H)) (and ?G7 ?B8 (<= ?Z7 0.0) (>= ?Z7 0.0)) (and ?P6 ?C8 (not ?I7) (<= ?Z7 ?H) (>= ?Z7 ?H)))))
(let (($x277600 (or (not ?X7) (and ?Y7 (not ?A8) (not ?B8) (not ?C8)) (and ?A8 (not ?Y7) (not ?B8) (not ?C8)) (and ?B8 (not ?Y7) (not ?A8) (not ?C8)) (and ?C8 (not ?Y7) (not ?A8) (not ?B8)))))
(let (($x212439 (or (not ?O8) (and ?M7 ?P8 (not ?Q8) (<= ?R8 0.0) (>= ?R8 0.0)) (and ?D8 ?S8 ?T8 (<= ?R8 ?D) (>= ?R8 ?D)) (and ?G8 ?U8 (not ?V8) (<= ?R8 0.0) (>= ?R8 0.0)))))
(let (($x416788 (or (not ?O8) (and ?P8 (not ?S8) (not ?U8)) (and ?S8 (not ?P8) (not ?U8)) (and ?U8 (not ?P8) (not ?S8)))))
(let (($x280013 (or (not ?W8) (and ?L8 ?X8 ?Y8) (and ?N6 ?Z8 ?F7) (and ?I8 ?A9 ?B9) (and ?K6 ?C9 ?C7))))
(let (($x190704 (or (not ?W8) (and ?X8 (not ?Z8) (not ?A9) (not ?C9)) (and ?Z8 (not ?X8) (not ?A9) (not ?C9)) (and ?A9 (not ?X8) (not ?Z8) (not ?C9)) (and ?C9 (not ?X8) (not ?Z8) (not ?A9)))))
(let (($x249857 (or (not ?D9) (and ?L8 ?E9 (not ?Y8)) (and ?U7 ?F9 (not ?N8)) (and ?D7 ?G9 (not ?W7)) (and ?I8 ?H9 (not ?B9)) (and ?R7 ?I9 (not ?K8)) (and ?A7 ?J9 (not ?T7)))))
(let (($x109555 (or (not ?D9) (and ?E9 (not ?F9) (not ?G9) (not ?H9) (not ?I9) (not ?J9)) (and ?F9 (not ?E9) (not ?G9) (not ?H9) (not ?I9) (not ?J9)) (and ?G9 (not ?E9) (not ?F9) (not ?H9) (not ?I9) (not ?J9)) (and ?H9 (not ?E9) (not ?F9) (not ?G9) (not ?I9) (not ?J9)) (and ?I9 (not ?E9) (not ?F9) (not ?G9) (not ?H9) (not ?J9)) (and ?J9 (not ?E9) (not ?F9) (not ?G9) (not ?H9) (not ?I9)))))
(let (($x454693 (or (not ?M10) (and ?V9 ?N10 (not ?O10)) (and ?Y9 ?P10 (not ?Q10)))))
(let (($x318818 (or (not ?R10) (and ?D10 ?S10 (<= ?T10 1.0) (>= ?T10 1.0)) (and ?P9 ?U10 (not ?F10) (<= ?T10 ?H) (>= ?T10 ?H)) (and ?A10 ?V10 (<= ?T10 0.0) (>= ?T10 0.0)) (and ?N9 ?W10 (not ?C10) (<= ?T10 ?H) (>= ?T10 ?H)))))
(let (($x263224 (or (not ?R10) (and ?S10 (not ?U10) (not ?V10) (not ?W10)) (and ?U10 (not ?S10) (not ?V10) (not ?W10)) (and ?V10 (not ?S10) (not ?U10) (not ?W10)) (and ?W10 (not ?S10) (not ?U10) (not ?V10)))))
(let (($x276181 (or (not ?X10) (and ?J10 ?Y10 (<= ?Z10 1.0) (>= ?Z10 1.0)) (and ?T9 ?A11 (not ?L10) (<= ?Z10 ?B11) (>= ?Z10 ?B11)) (and ?G10 ?C11 (<= ?Z10 0.0) (>= ?Z10 0.0)) (and ?R9 ?D11 (not ?I10) (<= ?Z10 ?B11) (>= ?Z10 ?B11)))))
(let (($x395962 (or (not ?X10) (and ?Y10 (not ?A11) (not ?C11) (not ?D11)) (and ?A11 (not ?Y10) (not ?C11) (not ?D11)) (and ?C11 (not ?Y10) (not ?A11) (not ?D11)) (and ?D11 (not ?Y10) (not ?A11) (not ?C11)))))
(let (($x312923 (>= ?L11 ?B)))
(let (($x472174 (<= ?L11 ?B)))
(let (($x258448 (>= ?K11 ?C)))
(let (($x119403 (<= ?K11 ?C)))
(let (($x276965 (>= ?I11 ?D)))
(let (($x384455 (<= ?I11 ?D)))
(let (($x299720 (>= ?H11 ?X6)))
(let (($x304635 (<= ?H11 ?X6)))
(let (($x417694 (>= ?G11 ?H5)))
(let (($x328986 (<= ?G11 ?H5)))
(let (($x298261 (and ?G8 ?R11 ?V8 $x328986 $x417694 $x304635 $x299720 $x384455 $x276965 $x119403 $x258448 $x472174 $x312923)))
(let (($x298784 (and ?D8 ?Q11 (not ?T8) $x328986 $x417694 $x304635 $x299720 $x384455 $x276965 $x119403 $x258448 $x472174 $x312923)))
(let (($x477115 (and ?M7 ?P11 ?Q8 $x328986 $x417694 $x304635 $x299720 $x384455 $x276965 $x119403 $x258448 $x472174 $x312923)))
(let (($x111586 (and ?O8 ?O11 ?M9 $x328986 $x417694 $x304635 $x299720 $x384455 $x276965 $x119403 $x258448 $x472174 $x312923)))
(let (($x265435 (>= ?I11 ?J11)))
(let (($x360737 (<= ?I11 ?J11)))
(let (($x414315 (>= ?H11 1.0)))
(let (($x387105 (<= ?H11 1.0)))
(let (($x484427 (>= ?G11 1.0)))
(let (($x400521 (<= ?G11 1.0)))
(let (($x386950 (and ?Y9 ?N11 ?Q10 $x400521 $x484427 $x387105 $x414315 $x360737 $x265435 (<= ?K11 0.0) (>= ?K11 0.0) $x472174 $x312923)))
(let (($x255525 (and ?V9 ?M11 ?O10 $x400521 $x484427 $x387105 $x414315 $x360737 $x265435 $x119403 $x258448 (<= ?L11 0.0) (>= ?L11 0.0))))
(let (($x247634 (or (not ?E11) (and ?M10 ?F11 $x400521 $x484427 $x387105 $x414315 $x360737 $x265435 $x119403 $x258448 $x472174 $x312923) $x255525 $x386950 $x111586 $x477115 $x298784 $x298261)))
(let (($x185758 (not ?Q11)))
(let (($x214279 (not ?P11)))
(let (($x189666 (not ?O11)))
(let (($x302803 (not ?N11)))
(let (($x197055 (not ?M11)))
(let (($x329146 (not ?F11)))
(let (($x435888 (or (not ?E11) (and ?F11 $x197055 $x302803 $x189666 $x214279 $x185758 (not ?R11)) (and ?M11 $x329146 $x302803 $x189666 $x214279 $x185758 (not ?R11)) (and ?N11 $x329146 $x197055 $x189666 $x214279 $x185758 (not ?R11)) (and ?O11 $x329146 $x197055 $x302803 $x214279 $x185758 (not ?R11)) (and ?P11 $x329146 $x197055 $x302803 $x189666 $x185758 (not ?R11)) (and ?Q11 $x329146 $x197055 $x302803 $x189666 $x214279 (not ?R11)) (and ?R11 $x329146 $x197055 $x302803 $x189666 $x214279 $x185758))))
(let (($x187657 (or (not ?C12) (and ?S11 ?D12 ?E12 (<= ?F12 0.0) (>= ?F12 0.0)) (and ?X11 ?G12 ?H12 (<= ?F12 ?E) (>= ?F12 ?E)) (and ?A12 ?I12 (not ?J12) (<= ?F12 0.0) (>= ?F12 0.0)))))
(let (($x278027 (or (not ?C12) (and ?D12 (not ?G12) (not ?I12)) (and ?G12 (not ?D12) (not ?I12)) (and ?I12 (not ?D12) (not ?G12)))))
(let (($x180053 (or (not ?S12) (and ?N12 ?T12 (not ?U12)) (and ?Q12 ?V12 (not ?W12)))))
(let (($x406665 (>= ?E13 ?L11)))
(let (($x373786 (<= ?E13 ?L11)))
(let (($x311974 (>= ?D13 ?K11)))
(let (($x302640 (<= ?D13 ?K11)))
(let (($x399504 (>= ?B13 ?E)))
(let (($x357386 (<= ?B13 ?E)))
(let (($x271263 (>= ?A13 ?W6)))
(let (($x317509 (<= ?A13 ?W6)))
(let (($x278806 (>= ?Z12 ?V6)))
(let (($x295533 (<= ?Z12 ?V6)))
(let (($x366898 (and ?A12 ?K13 ?J12 $x295533 $x278806 $x317509 $x271263 $x357386 $x399504 $x302640 $x311974 $x373786 $x406665)))
(let (($x486166 (and ?X11 ?J13 (not ?H12) $x295533 $x278806 $x317509 $x271263 $x357386 $x399504 $x302640 $x311974 $x373786 $x406665)))
(let (($x253408 (and ?S11 ?I13 (not ?E12) $x295533 $x278806 $x317509 $x271263 $x357386 $x399504 $x302640 $x311974 $x373786 $x406665)))
(let (($x157323 (and ?C12 ?H13 ?M12 $x295533 $x278806 $x317509 $x271263 $x357386 $x399504 $x302640 $x311974 $x373786 $x406665)))
(let (($x407057 (>= ?B13 ?C13)))
(let (($x132371 (<= ?B13 ?C13)))
(let (($x466278 (>= ?A13 1.0)))
(let (($x380551 (<= ?A13 1.0)))
(let (($x130013 (>= ?Z12 1.0)))
(let (($x383517 (<= ?Z12 1.0)))
(let (($x404872 (and ?Q12 ?G13 ?W12 $x383517 $x130013 $x380551 $x466278 $x132371 $x407057 (<= ?D13 0.0) (>= ?D13 0.0) $x373786 $x406665)))
(let (($x336447 (and ?N12 ?F13 ?U12 $x383517 $x130013 $x380551 $x466278 $x132371 $x407057 $x302640 $x311974 (<= ?E13 0.0) (>= ?E13 0.0))))
(let (($x274684 (or (not ?X12) (and ?S12 ?Y12 $x383517 $x130013 $x380551 $x466278 $x132371 $x407057 $x302640 $x311974 $x373786 $x406665) $x336447 $x404872 $x157323 $x253408 $x486166 $x366898)))
(let (($x395258 (not ?J13)))
(let (($x178394 (not ?I13)))
(let (($x275642 (not ?H13)))
(let (($x421491 (not ?G13)))
(let (($x376121 (not ?F13)))
(let (($x132488 (not ?Y12)))
(let (($x437059 (or (not ?X12) (and ?Y12 $x376121 $x421491 $x275642 $x178394 $x395258 (not ?K13)) (and ?F13 $x132488 $x421491 $x275642 $x178394 $x395258 (not ?K13)) (and ?G13 $x132488 $x376121 $x275642 $x178394 $x395258 (not ?K13)) (and ?H13 $x132488 $x376121 $x421491 $x178394 $x395258 (not ?K13)) (and ?I13 $x132488 $x376121 $x421491 $x275642 $x395258 (not ?K13)) (and ?J13 $x132488 $x376121 $x421491 $x275642 $x178394 (not ?K13)) (and ?K13 $x132488 $x376121 $x421491 $x275642 $x178394 $x395258))))
(let (($x141205 (or (not ?Q13) (and ?L13 ?R13 (not ?S13)) (and ?O13 ?T13 (not ?U13)))))
(let (($x233589 (and ?O13 ?A14 ?U13 (<= ?X13 0.0) (>= ?X13 0.0) (<= ?Y13 ?E13) (>= ?Y13 ?E13))))
(let (($x125832 (and ?L13 ?Z13 ?S13 (<= ?X13 ?D13) (>= ?X13 ?D13) (<= ?Y13 0.0) (>= ?Y13 0.0))))
(let (($x233748 (and ?Q13 ?W13 (<= ?X13 ?D13) (>= ?X13 ?D13) (<= ?Y13 ?E13) (>= ?Y13 ?E13))))
(let (($x97940 (or (not ?V13) (and ?W13 (not ?Z13) (not ?A14)) (and ?Z13 (not ?W13) (not ?A14)) (and ?A14 (not ?W13) (not ?Z13)))))
(let (($x302664 (or (not ?G14) (and ?B14 ?H14 (not ?I14)) (and ?E14 ?J14 (not ?K14)))))
(let (($x261647 (>= ?X14 ?Z12)))
(let (($x290990 (<= ?X14 ?Z12)))
(let (($x101293 (>= ?W14 ?G11)))
(let (($x254056 (<= ?W14 ?G11)))
(let (($x183829 (>= ?T14 1.0)))
(let (($x300801 (<= ?T14 1.0)))
(let (($x312660 (>= ?S14 ?I)))
(let (($x171397 (<= ?S14 ?I)))
(let (($x202827 (>= ?R14 ?H)))
(let (($x295773 (<= ?R14 ?H)))
(let (($x364965 (>= ?Q14 ?B13)))
(let (($x286947 (<= ?Q14 ?B13)))
(let (($x304772 (>= ?P14 ?I11)))
(let (($x399886 (<= ?P14 ?I11)))
(let (($x297689 (>= ?O14 ?X13)))
(let (($x300600 (<= ?O14 ?X13)))
(let (($x431940 (>= ?N14 ?Y13)))
(let (($x247613 (<= ?N14 ?Y13)))
(let (($x266115 (and ?E14 ?G15 ?K14 $x247613 $x431940 $x300600 $x297689 $x399886 $x304772 $x286947 $x364965 $x295773 $x202827 $x171397 $x312660 $x300801 $x183829 (<= ?U14 ?H11) (>= ?U14 ?H11) (<= ?V14 0.0) (>= ?V14 0.0) $x254056 $x101293 $x290990 $x261647)))
(let (($x311405 (and ?B14 ?F15 ?I14 $x247613 $x431940 $x300600 $x297689 $x399886 $x304772 $x286947 $x364965 $x295773 $x202827 $x171397 $x312660 $x300801 $x183829 (<= ?U14 0.0) (>= ?U14 0.0) (<= ?V14 ?A13) (>= ?V14 ?A13) $x254056 $x101293 $x290990 $x261647)))
(let (($x378103 (>= ?X14 ?N)))
(let (($x344619 (<= ?X14 ?N)))
(let (($x250337 (>= ?W14 ?M)))
(let (($x385918 (<= ?W14 ?M)))
(let (($x257541 (>= ?V14 ?L)))
(let (($x271343 (<= ?V14 ?L)))
(let (($x304289 (>= ?U14 ?K)))
(let (($x279913 (<= ?U14 ?K)))
(let (($x350415 (>= ?T14 ?A15)))
(let (($x239748 (<= ?T14 ?A15)))
(let (($x288321 (>= ?Q14 ?E)))
(let (($x476528 (<= ?Q14 ?E)))
(let (($x292297 (>= ?P14 ?D)))
(let (($x117583 (<= ?P14 ?D)))
(let (($x165347 (>= ?O14 ?C)))
(let (($x329597 (<= ?O14 ?C)))
(let (($x312951 (>= ?N14 ?B)))
(let (($x221209 (<= ?N14 ?B)))
(let (($x415825 (and ?X7 ?D15 $x221209 $x312951 $x329597 $x165347 $x117583 $x292297 $x476528 $x288321 (<= ?R14 ?Z7) (>= ?R14 ?Z7) (<= ?S14 ?E15) (>= ?S14 ?E15) $x239748 $x350415 $x279913 $x304289 $x271343 $x257541 $x385918 $x250337 $x344619 $x378103)))
(let (($x332793 (and ?X10 ?B15 $x221209 $x312951 $x329597 $x165347 $x117583 $x292297 $x476528 $x288321 (<= ?R14 ?Z10) (>= ?R14 ?Z10) (<= ?S14 ?C15) (>= ?S14 ?C15) $x239748 $x350415 $x279913 $x304289 $x271343 $x257541 $x385918 $x250337 $x344619 $x378103)))
(let (($x378973 (and ?R10 ?Y14 $x221209 $x312951 $x329597 $x165347 $x117583 $x292297 $x476528 $x288321 (<= ?R14 ?T10) (>= ?R14 ?T10) (<= ?S14 ?Z14) (>= ?S14 ?Z14) $x239748 $x350415 $x279913 $x304289 $x271343 $x257541 $x385918 $x250337 $x344619 $x378103)))
(let (($x342774 (and ?G14 ?M14 $x247613 $x431940 $x300600 $x297689 $x399886 $x304772 $x286947 $x364965 $x295773 $x202827 $x171397 $x312660 $x300801 $x183829 (<= ?U14 ?H11) (>= ?U14 ?H11) (<= ?V14 ?A13) (>= ?V14 ?A13) $x254056 $x101293 $x290990 $x261647)))
(let (($x276079 (or (not ?L14) (and ?M14 (not ?Y14) (not ?B15) (not ?D15) (not ?F15) (not ?G15)) (and ?Y14 (not ?M14) (not ?B15) (not ?D15) (not ?F15) (not ?G15)) (and ?B15 (not ?M14) (not ?Y14) (not ?D15) (not ?F15) (not ?G15)) (and ?D15 (not ?M14) (not ?Y14) (not ?B15) (not ?F15) (not ?G15)) (and ?F15 (not ?M14) (not ?Y14) (not ?B15) (not ?D15) (not ?G15)) (and ?G15 (not ?M14) (not ?Y14) (not ?B15) (not ?D15) (not ?F15)))))
(let (($x237805 (and ?L14 ?S15 (not ?J15) (<= ?P15 0.0) (>= ?P15 0.0) (<= ?Q15 ?G) (>= ?Q15 ?G))))
(let (($x164547 (and ?H15 ?R15 (not ?M15) (<= ?P15 ?F) (>= ?P15 ?F) (<= ?Q15 0.0) (>= ?Q15 0.0))))
(let (($x280959 (and ?K15 ?O15 (<= ?P15 ?F) (>= ?P15 ?F) (<= ?Q15 ?G) (>= ?Q15 ?G))))
(let (($x215532 (or (not ?N15) (and ?O15 (not ?R15) (not ?S15)) (and ?R15 (not ?O15) (not ?S15)) (and ?S15 (not ?O15) (not ?R15)))))
(let (($x268256 (|cp-rel-bb.i.i.i| ?A ?B ?C ?D ?E ?F ?G ?H ?I ?J ?K ?L ?M ?N)))
(let (($x417933 (and $x268256 (= ?M15 (or ?Q17 ?K17)) (= ?Q17 (or ?O17 ?P17)) (= ?P17 (= ?G 0.0)) (= ?O17 (not (= ?S14 2.0))) (= ?J15 (or ?N17 ?K17)) (= ?N17 (or ?L17 ?M17)) (= ?M17 (= ?F 0.0)) (= ?L17 (not (= ?S14 1.0))) (= ?K17 (= ?T14 0.0)) (= ?K14 (= ?I 3.0)) (= ?I14 (= ?I 1.0)) (= ?D14 (not (<= 3.0 ?I))) (= ?U13 (= ?I 2.0)) (= ?S13 (= ?I 1.0)) (= ?N13 (not (<= 2.0 ?I))) (= ?W12 (= ?I 2.0)) (= ?U12 (= ?I 1.0)) (= ?P12 (not (<= 2.0 ?I))) (= ?C13 (ite ?J17 0.0 ?E)) (= ?J17 (= ?I 1.0)) (= ?M12 (= ?F12 0.0)) (= ?J12 (not (<= ?I17 2.0))) (= ?I17 (+ (~ 2.0) ?I)) (= ?H12 (= ?I 1.0)) (= ?Z11 (not (<= 2.0 ?I))) (= ?E12 (= ?I 0.0)) (= ?U11 (not (<= 1.0 ?I))) (= ?C15 (+ ?H17 ?I)) (= ?H17 (ite ?G17 1.0 (~ 1.0))) (= ?G17 (= ?Z10 1.0)) (= ?Z14 (+ ?F17 ?I)) (= ?F17 (ite ?E17 1.0 (~ 1.0))) (= ?E17 (= ?T10 1.0)) (= ?Q10 (= ?I 2.0)) (= ?O10 (= ?I 1.0)) (= ?L10 (= ?I 0.0)) (= ?I10 (= ?I 4.0)) (= ?F10 (= ?I 0.0)) (= ?C10 (= ?I 4.0)) (= ?X9 (not (<= 2.0 ?I))) (= ?J11 (ite ?D17 0.0 ?D)) (= ?D17 (= ?I 2.0)) (= ?B11 (ite ?M6 1.0 0.0)) (= ?M9 (= ?R8 0.0)) (= ?Y8 (or ?X15 ?C17)) (= ?C17 (not (<= 4.0 ?I))) (= ?B9 (or ?X15 ?B17)) (= ?B17 (not (<= ?I 2.0))) (= ?V8 (not (<= ?A17 1.0))) (= ?A17 (+ (~ 3.0) ?I)) (= ?T8 (= ?I 2.0)) (= ?E15 (+ ?Z16 ?I)) (= ?Z16 (ite ?Y16 1.0 (~ 1.0))) (= ?Y16 (= ?Z7 1.0)) (= ?N8 (or ?X16 ?W15)) (= ?X16 (not (<= 3.0 ?I))) (= ?K8 (or ?W16 ?W15)) (= ?W16 (not (<= ?I 1.0))) (= ?F8 (not (<= 3.0 ?I))) (= ?Q8 (not (<= ?I 1.0))) (= ?W7 (and ?U16 ?V16)) (= ?V16 (or ?V15 ?T16)) (= ?U16 (or ?T16 ?U15)) (= ?T16 (not (<= 2.0 ?I))) (= ?T7 (and ?R16 ?S16)) (= ?S16 (or ?V15 ?Q16)) (= ?R16 (or ?Q16 ?U15)) (= ?Q16 (not (<= ?I 0.0))) (= ?O7 (not (<= 2.0 ?I))) (= ?L7 (= ?I 0.0)) (= ?I7 (= ?I 4.0)) (= ?F7 (= ?I 0.0)) (= ?C7 (= ?I 4.0)) (= ?M6 (= ?H 0.0)) (= ?J6 (= ?H5 1.0)) (= ?V5 (or ?X15 ?P16)) (= ?P16 (not (<= 4.0 ?I))) (= ?Y5 (or ?X15 ?O16)) (= ?O16 (not (<= ?I 2.0))) (= ?S5 (and ?N16 ?M16)) (= ?N16 (not (= ?N 0.0))) (= ?M16 (= ?I 3.0)) (= ?P5 (or ?L16 ?W15)) (= ?L16 (not (<= 3.0 ?I))) (= ?M5 (or ?K16 ?W15)) (= ?K16 (not (<= ?I 1.0))) (= ?C5 (and ?I16 ?J16)) (= ?J16 (or ?V15 ?H16)) (= ?I16 (or ?H16 ?U15)) (= ?H16 (not (<= 2.0 ?I))) (= ?Z4 (and ?F16 ?G16)) (= ?G16 (or ?V15 ?E16)) (= ?F16 (or ?E16 ?U15)) (= ?E16 (not (<= ?I 0.0))) (= ?W4 (= ?N 1.0)) (= ?T4 (= ?I 0.0)) (= ?Q4 (= ?I 4.0)) (= ?N4 (and ?C16 ?D16)) (= ?D16 (= ?I 1.0)) (= ?C16 (not (= ?M 0.0))) (= ?I4 (= ?H 1.0)) (= ?A15 (ite ?B16 0.0 ?J)) (= ?B16 (= ?J 1.0)) (= ?T3 (= ?I3 0.0)) (= ?Q3 (= ?I 4.0)) (= ?O3 (= ?I 3.0)) (= ?C3 (not (<= 4.0 ?I))) (= ?M3 (= ?I 2.0)) (= ?K3 (= ?I 1.0)) (= ?H3 (= ?I 0.0)) (= ?X2 (not (<= 3.0 ?I))) (= ?S2 (not (<= 1.0 ?I))) (= ?N2 (not (<= 2.0 ?I))) (= ?K2 (= ?B2 0.0)) (= ?H2 (not (<= ?A16 1.0))) (= ?A16 (+ (~ 3.0) ?I)) (= ?F2 (= ?I 2.0)) (= ?D2 (= ?I 1.0)) (= ?A2 (= ?I 0.0)) (= ?V1 (not (<= 3.0 ?I))) (= ?Q1 (not (<= 1.0 ?I))) (= ?L1 (not (<= 2.0 ?I))) (= ?I1 (and ?Z15 ?X15)) (= ?Z15 (and ?Y15 ?V15)) (= ?Y15 (and ?U15 ?W15)) (= ?X15 (= ?L 0.0)) (= ?W15 (= ?C 0.0)) (= ?V15 (= ?K 0.0)) (= ?U15 (= ?B 0.0)) (= ?F1 (not (<= 11.0 ?A))) (>= ?B1 ?X14) (<= ?B1 ?X14) (>= ?A1 ?W14) (<= ?A1 ?W14) (>= ?Z ?V14) (<= ?Z ?V14) (>= ?Y ?U14) (<= ?Y ?U14) (>= ?X ?T14) (<= ?X ?T14) (>= ?W ?S14) (<= ?W ?S14) (>= ?V ?R14) (<= ?V ?R14) (>= ?U ?Q15) (<= ?U ?Q15) (>= ?T ?P15) (<= ?T ?P15) (>= ?S ?Q14) (<= ?S ?Q14) (>= ?R ?P14) (<= ?R ?P14) (>= ?Q ?O14) (<= ?Q ?O14) (>= ?P ?N14) (<= ?P ?N14) (>= ?O ?T15) (<= ?O ?T15) (= ?N15 true) $x215532 (or (not ?N15) $x280959 $x164547 $x237805) (or (not ?K15) ?L15) (or (not ?K15) (and ?H15 ?L15 ?M15)) (or (not ?H15) ?I15) (or (not ?H15) (and ?L14 ?I15 ?J15)) $x276079 (or (not ?L14) $x342774 $x378973 $x332793 $x415825 $x311405 $x266115) (or (not ?G14) (and ?H14 (not ?J14)) (and ?J14 (not ?H14))) $x302664 (or (not ?E14) ?F14) (or (not ?E14) (and ?V13 ?F14 (not ?D14))) (or (not ?B14) ?C14) (or (not ?B14) (and ?V13 ?C14 ?D14)) $x97940 (or (not ?V13) $x233748 $x125832 $x233589) (or (not ?Q13) (and ?R13 (not ?T13)) (and ?T13 (not ?R13))) $x141205 (or (not ?O13) ?P13) (or (not ?O13) (and ?X12 ?P13 (not ?N13))) (or (not ?L13) ?M13) (or (not ?L13) (and ?X12 ?M13 ?N13)) $x437059 $x274684 (or (not ?S12) (and ?T12 (not ?V12)) (and ?V12 (not ?T12))) $x180053 (or (not ?Q12) ?R12) (or (not ?Q12) (and ?K12 ?R12 (not ?P12))) (or (not ?N12) ?O12) (or (not ?N12) (and ?K12 ?O12 ?P12)) (or (not ?K12) ?L12) (or (not ?K12) (and ?C12 ?L12 (not ?M12))) $x278027 $x187657 (or (not ?A12) ?B12) (or (not ?A12) (and ?V11 ?B12 (not ?Z11))) (or (not ?X11) ?Y11) (or (not ?X11) (and ?V11 ?Y11 ?Z11)) (or (not ?V11) ?W11) (or (not ?V11) (and ?E11 ?W11 (not ?U11))) (or (not ?S11) ?T11) (or (not ?S11) (and ?E11 ?T11 ?U11)) $x435888 $x247634 $x395962 $x276181 $x263224 $x318818 (or (not ?M10) (and ?N10 (not ?P10)) (and ?P10 (not ?N10))) $x454693 (or (not ?J10) ?K10) (or (not ?J10) (and ?T9 ?K10 ?L10)) (or (not ?G10) ?H10) (or (not ?G10) (and ?R9 ?H10 ?I10)) (or (not ?D10) ?E10) (or (not ?D10) (and ?P9 ?E10 ?F10)) (or (not ?A10) ?B10) (or (not ?A10) (and ?N9 ?B10 ?C10)) (or (not ?Y9) ?Z9) (or (not ?Y9) (and ?K9 ?Z9 (not ?X9))) (or (not ?V9) ?W9) (or (not ?V9) (and ?K9 ?W9 ?X9)) (or (not ?T9) ?U9) (or (not ?T9) (and ?D9 ?U9 (not ?M6))) (or (not ?R9) ?S9) (or (not ?R9) (and ?D9 ?S9 ?M6)) (or (not ?P9) ?Q9) (or (not ?P9) (and ?W8 ?Q9 (not ?I4))) (or (not ?N9) ?O9) (or (not ?N9) (and ?W8 ?O9 ?I4)) (or (not ?K9) ?L9) (or (not ?K9) (and ?O8 ?L9 (not ?M9))) $x109555 $x249857 $x190704 $x280013 $x416788 $x212439 (or (not ?L8) ?M8) (or (not ?L8) (and ?U7 ?M8 ?N8)) (or (not ?I8) ?J8) (or (not ?I8) (and ?R7 ?J8 ?K8)) (or (not ?G8) ?H8) (or (not ?G8) (and ?P7 ?H8 (not ?F8))) (or (not ?D8) ?E8) (or (not ?D8) (and ?P7 ?E8 ?F8)) $x277600 $x344750 (or (not ?U7) ?V7) (or (not ?U7) (and ?D7 ?V7 ?W7)) (or (not ?R7) ?S7) (or (not ?R7) (and ?A7 ?S7 ?T7)) (or (not ?P7) ?Q7) (or (not ?P7) (and ?T6 ?Q7 (not ?O7))) (or (not ?M7) ?N7) (or (not ?M7) (and ?T6 ?N7 ?O7)) (or (not ?J7) ?K7) (or (not ?J7) (and ?R6 ?K7 ?L7)) (or (not ?G7) ?H7) (or (not ?G7) (and ?P6 ?H7 ?I7)) (or (not ?D7) ?E7) (or (not ?D7) (and ?N6 ?E7 (not ?F7))) (or (not ?A7) ?B7) (or (not ?A7) (and ?K6 ?B7 (not ?C7))) $x339263 (or (not ?T6) $x427610 $x450488 $x374201) (or (not ?R6) ?S6) (or (not ?R6) (and ?A6 ?S6 (not ?I4))) (or (not ?P6) ?Q6) (or (not ?P6) (and ?A6 ?Q6 ?I4)) (or (not ?N6) ?O6) (or (not ?N6) (and ?T5 ?O6 (not ?M6))) (or (not ?K6) ?L6) (or (not ?K6) (and ?T5 ?L6 ?M6)) (or (not ?H6) ?I6) (or (not ?H6) (and ?Q5 ?I6 (not ?J6))) $x362765 $x152958 $x279624 $x224610 (or (not ?Q5) ?R5) (or (not ?Q5) (and ?D5 ?R5 ?S5)) (or (not ?N5) ?O5) (or (not ?N5) (and ?A5 ?O5 ?P5)) (or (not ?K5) ?L5) (or (not ?K5) (and ?X4 ?L5 ?M5)) $x209856 (or (not ?D5) $x258483 $x442812 $x484437) (or (not ?A5) ?B5) (or (not ?A5) (and ?R4 ?B5 ?C5)) (or (not ?X4) ?Y4) (or (not ?X4) (and ?O4 ?Y4 ?Z4)) (or (not ?U4) ?V4) (or (not ?U4) (and ?L4 ?V4 (not ?W4))) (or (not ?R4) ?S4) (or (not ?R4) (and ?J4 ?S4 (not ?T4))) (or (not ?O4) ?P4) (or (not ?O4) (and ?G4 ?P4 (not ?Q4))) (or (not ?L4) ?M4) (or (not ?L4) (and ?D4 ?M4 ?N4)) (or (not ?J4) ?K4) (or (not ?J4) (and ?R3 ?K4 (not ?I4))) (or (not ?G4) ?H4) (or (not ?G4) (and ?R3 ?H4 ?I4)) (or (not ?D4) (and ?E4 (not ?F4)) (and ?F4 (not ?E4))) $x172741 $x131952 $x152258 $x199474 $x341823 (or (not ?D3) ?E3) (or (not ?D3) (and ?Y2 ?E3 (not ?C3))) (or (not ?A3) ?B3) (or (not ?A3) (and ?Y2 ?B3 ?C3)) (or (not ?Y2) ?Z2) (or (not ?Y2) (and ?O2 ?Z2 (not ?X2))) (or (not ?V2) ?W2) (or (not ?V2) (and ?O2 ?W2 ?X2)) (or (not ?T2) ?U2) (or (not ?T2) (and ?L2 ?U2 (not ?S2))) (or (not ?Q2) ?R2) (or (not ?Q2) (and ?L2 ?R2 ?S2)) (or (not ?O2) ?P2) (or (not ?O2) (and ?I2 ?P2 (not ?N2))) (or (not ?L2) ?M2) (or (not ?L2) (and ?I2 ?M2 ?N2)) (or (not ?I2) ?J2) (or (not ?I2) (and ?Y1 ?J2 ?K2)) $x229700 $x386851 (or (not ?W1) ?X1) (or (not ?W1) (and ?M1 ?X1 (not ?V1))) (or (not ?T1) ?U1) (or (not ?T1) (and ?M1 ?U1 ?V1)) (or (not ?R1) ?S1) (or (not ?R1) (and ?J1 ?S1 (not ?Q1))) (or (not ?O1) ?P1) (or (not ?O1) (and ?J1 ?P1 ?Q1)) (or (not ?M1) ?N1) (or (not ?M1) (and ?G1 ?N1 (not ?L1))) (or (not ?J1) ?K1) (or (not ?J1) (and ?G1 ?K1 ?L1)) (or (not ?G1) ?H1) (or (not ?G1) (and ?C1 ?H1 (not ?I1))) (or (not ?C1) ?E1) (or (not ?C1) (and ?D1 ?E1 ?F1)) (= ?T15 (+ 1.0 ?A)))))
(=> $x417933 $x413515))))))))))))))))))))))))))))))))))))))))))))))))))))))))))))))))))))))))))))))))))))))))))))))))))))))))))))))))))))))))))))))))))))))))))))))))))))))))))))))))))
)
(assert (forall ((?A Real) (?B Real) (?C Real) (?D Real) (?E Real) (?F Real) (?G Real) (?H Real) (?I Real) (?J Real) (?K Real) (?L Real) (?M Real) (?N Real) (?O Bool) (?P Bool) (?Q Bool) (?R Bool) (?S Bool) (?T Bool) (?U Bool) (?V Bool) (?W Bool) (?X Bool) (?Y Bool) (?Z Bool) (?A1 Bool) (?B1 Bool) (?C1 Bool) (?D1 Bool) (?E1 Bool) )(let (($x454020 (|cp-rel-__UFO__0| ?A ?B ?C ?D ?E ?F ?G ?H ?I ?J ?K ?L ?M ?N)))
(let (($x362969 (= ?C1 (and ?D1 ?E1))))
(let (($x343814 (or (not ?O) (and ?P ?Q ?R))))
(let (($x432582 (or (not ?O) ?Q)))
(let (($x168379 (or (not ?Z) (and ?O ?A1 ?S) (and ?P ?B1 (not ?R)))))
(let (($x489336 (or (not ?Z) (and ?A1 (not ?B1)) (and ?B1 (not ?A1)))))
(let (($x209687 (= ?Z true)))
(let (($x255459 (= ?C1 true)))
(let (($x283949 (= ?R (not (<= 11.0 ?A)))))
(let (($x422963 (= ?T (= ?B 0.0))))
(let (($x438703 (= ?U (= ?K 0.0))))
(let (($x356281 (= ?V (= ?C 0.0))))
(let (($x249412 (= ?W (= ?L 0.0))))
(let (($x486116 (= ?X (and ?T ?V))))
(let (($x424267 (= ?Y (and ?X ?U))))
(let (($x103714 (= ?S (and ?Y ?W))))
(let (($x224934 (= ?D1 (= ?F 0.0))))
(let (($x209193 (= ?E1 (= ?G 0.0))))
(let (($x270378 (|cp-rel-bb.i.i.i| ?A ?B ?C ?D ?E ?F ?G ?H ?I ?J ?K ?L ?M ?N)))
(let (($x236121 (and $x270378 $x209193 $x224934 $x103714 $x424267 $x486116 $x249412 $x356281 $x438703 $x422963 $x283949 $x255459 $x209687 $x489336 $x168379 $x432582 $x343814 $x362969)))
(=> $x236121 $x454020))))))))))))))))))))))
)
(assert (forall ((?A Real) (?B Real) (?C Real) (?D Real) (?E Real) (?F Real) (?G Real) (?H Real) (?I Real) (?J Real) (?K Real) (?L Real) (?M Real) (?N Real) (?O Bool) )(let (($x138954 (|cp-rel-__UFO__0| ?A ?B ?C ?D ?E ?F ?G ?H ?I ?J ?K ?L ?M ?N)))
(=> (and $x138954 (= ?O true)) $x138954)))
)
(assert (forall ((?A Real) (?B Real) (?C Real) (?D Real) (?E Real) (?F Real) (?G Real) (?H Real) (?I Real) (?J Real) (?K Real) (?L Real) (?M Real) (?N Real) (?O Bool) (?P Bool) (?Q Bool) (?R Bool) (?S Bool) (?T Bool) (?U Bool) (?V Bool) (?W Bool) (?X Bool) (?Y Bool) (?Z Bool) (?A1 Bool) (?B1 Bool) (?C1 Bool) (?D1 Bool) (?E1 Bool) )(let (($x362969 (= ?C1 (and ?D1 ?E1))))
(let (($x343814 (or (not ?O) (and ?P ?Q ?R))))
(let (($x432582 (or (not ?O) ?Q)))
(let (($x168379 (or (not ?Z) (and ?O ?A1 ?S) (and ?P ?B1 (not ?R)))))
(let (($x489336 (or (not ?Z) (and ?A1 (not ?B1)) (and ?B1 (not ?A1)))))
(let (($x209687 (= ?Z true)))
(let (($x283949 (= ?R (not (<= 11.0 ?A)))))
(let (($x422963 (= ?T (= ?B 0.0))))
(let (($x438703 (= ?U (= ?K 0.0))))
(let (($x356281 (= ?V (= ?C 0.0))))
(let (($x249412 (= ?W (= ?L 0.0))))
(let (($x486116 (= ?X (and ?T ?V))))
(let (($x424267 (= ?Y (and ?X ?U))))
(let (($x103714 (= ?S (and ?Y ?W))))
(let (($x224934 (= ?D1 (= ?F 0.0))))
(let (($x209193 (= ?E1 (= ?G 0.0))))
(let (($x270378 (|cp-rel-bb.i.i.i| ?A ?B ?C ?D ?E ?F ?G ?H ?I ?J ?K ?L ?M ?N)))
(let (($x170397 (and $x270378 $x209193 $x224934 $x103714 $x424267 $x486116 $x249412 $x356281 $x438703 $x422963 $x283949 (not (= ?C1 true)) $x209687 $x489336 $x168379 $x432582 $x343814 $x362969)))
(=> $x170397 |cp-rel-UnifiedReturnBlock|))))))))))))))))))))
)
(assert (not cp-rel-UnifiedReturnBlock))
(check-sat)
